p cnf 13 27
13 -12 9 0
-13 12 7 0
13 -12 2 0
-13 -12 -1 0
13 -11 -10 0
13 11 4 0
-13 4 -2 0
12 -11 9 0
-12 -11 -4 0
-12 -10 -3 0
12 10 -2 0
-12 9 2 0
12 -8 7 0
-12 6 2 0
-11 -9 -5 0
-11 8 3 0
-10 9 1 0
10 -8 -5 0
9 7 5 0
9 -7 1 0
-9 -7 -1 0
-9 6 -1 0
-8 7 6 0
-8 7 4 0
8 6 -3 0
7 2 -1 0
-5 -3 2 0
